[20]
0
1
2
3
4
5
6
7
8
9
10
11
12
13
14
15
16
17
18
19
[190]
0,1,1
0,2,1
0,3,1
0,4,1
0,5,1
0,6,1
0,7,1
0,8,1
0,9,1
0,10,1
0,11,1
0,12,1
0,13,1
0,14,1
0,15,1
0,16,1
0,17,1
0,18,1
0,19,1
1,2,2
1,3,2
1,4,2
1,5,2
1,6,2
1,7,2
1,8,2
1,9,2
1,10,2
1,11,2
1,12,2
1,13,2
1,14,2
1,15,2
1,16,2
1,17,2
1,18,2
1,19,2
2,3,3
2,4,3
2,5,3
2,6,3
2,7,3
2,8,3
2,9,3
2,10,3
2,11,3
2,12,3
2,13,3
2,14,3
2,15,3
2,16,3
2,17,3
2,18,3
2,19,3
3,4,4
3,5,4
3,6,4
3,7,4
3,8,4
3,9,4
3,10,4
3,11,4
3,12,4
3,13,4
3,14,4
3,15,4
3,16,4
3,17,4
3,18,4
3,19,4
4,5,5
4,6,5
4,7,5
4,8,5
4,9,5
4,10,5
4,11,5
4,12,5
4,13,5
4,14,5
4,15,5
4,16,5
4,17,5
4,18,5
4,19,5
5,6,6
5,7,6
5,8,6
5,9,6
5,10,6
5,11,6
5,12,6
5,13,6
5,14,6
5,15,6
5,16,6
5,17,6
5,18,6
5,19,6
6,7,7
6,8,7
6,9,7
6,10,7
6,11,7
6,12,7
6,13,7
6,14,7
6,15,7
6,16,7
6,17,7
6,18,7
6,19,7
7,8,8
7,9,8
7,10,8
7,11,8
7,12,8
7,13,8
7,14,8
7,15,8
7,16,8
7,17,8
7,18,8
7,19,8
8,9,9
8,10,9
8,11,9
8,12,9
8,13,9
8,14,9
8,15,9
8,16,9
8,17,9
8,18,9
8,19,9
9,10,9
9,11,10
9,12,10
9,13,10
9,14,10
9,15,10
9,16,10
9,17,10
9,18,10
9,19,10
10,11,11
10,12,11
10,13,11
10,14,11
10,15,11
10,16,4
10,17,5
10,18,3
10,19,1
11,12,5
11,13,9
11,14,4
11,15,5
11,16,3
11,17,1
11,18,6
11,19,7
12,13,9
12,14,4
12,15,2
12,16,3
12,17,1
12,18,5
12,19,6
13,14,7
13,15,9
13,16,5
13,17,1
13,18,3
13,19,5
14,15,4
14,16,6
14,17,8
14,18,7
14,19,9
15,16,4
15,17,5
15,18,6
15,19,1
16,17,2
16,18,3
16,19,4
17,18,5
17,19,9
18,19,1